robust/generate/spp_dkp_Lefebvre_et_al_2026/src/shortest_path_4_4.kp
46
96

[7.52 6.09 2.39 7.28 3.01 9.0 0.41 4.23 8.76 4.37]

[14 72 54 85 84 58 77 22 82 96]
